4 
5  12 27 41 48 56 
6  03 11 18 25 33 40 48 55 
7  03 10 18 25 33 40 48 55 
8  03 10 18 25 33 40 48 55 
9  03 10 18 25 33 40 48 55 
10  03 10 18 25 33 40 48 55 
11  03 10 18 25 33 40 48 55 
12  03 10 18 25 33 40 48 55 
13  03 11 19 26 34 41 49 56 
14  04 11 19 26 34 41 48 55 
15  04 11 19 26 34 41 49 56 
16  04 11 19 26 34 41 49 56 
17  04 11 19 26 34 41 49 56 
18  04 11 19 26 34 41 48 55 
19  03 09 16 24 31 39 46 54 
20  01 16 31 46 
21  03 18 33 48 
22  03 18 33 48 
23 
